StringID   Type       x          y          demand     ReadyTime  DueDate    ServiceTime
D0         d              63.342    14.039      0.000      0.000     23.983      0.000
S0         f              63.342    14.039      0.000      0.000     23.983      0.000
S1         f              71.450    29.170      0.000      0.000     23.983      0.000
S2         f              37.620    27.450      0.000      0.000     23.983      0.000
C0         c              18.062    53.085      0.008      9.197     11.743      0.054
C1         c              41.917    41.894      0.002     12.997     16.545      0.051
C2         c              43.522    73.990      0.007     10.083     13.216      0.054
C3         c              77.292    78.680      0.005     16.807     19.593      0.053
C4         c              78.083    18.586      0.002     11.475     15.351      0.051

Q Vehicle fuel tank capacity /113.8000/
C Vehicle load capacity /1.0900/
r fuel consumption rate /0.4529/
g inverse refueling rate /0.0068/
v average Velocity /34.0500/
gv charging speed /146.3700/

--------------------
instance_id /417/
number of clusters /8/
working_startTime (hour) /8.00/
working_endTime (hour) /21.38/
instance_endTime (hour) /23.98/
service_time_type /cargoweight/
demand_type /20_80/
instance_type /C/
instance x range /[0.0, 100.0]/
instance y range /[0.0, 100.0]/
cs_time_to_depot (hour)/[0.504154030533504,0.8519297876388178]/
